(set-info :source |printed by MathSAT|)
(declare-fun retard0.next () Bool)
(declare-fun pOK.next () Bool)
(declare-fun call__main_.call_hypothese.ok () Bool)
(declare-fun call__main_.call_hypothese2.ite.next () Bool)
(declare-fun call_Sofar.flby () Bool)
(declare-fun flby2 () Bool)
(declare-fun call__main_.call_hypothese2.flby () Bool)
(declare-fun call__main_.call_controleur2.diff.next () Int)
(declare-fun call__main_.diff0 () Int)
(declare-fun call__main_.call_hypothese.c.next () Int)
(declare-fun call_Sofar.Sofar.next () Bool)
(declare-fun call__main_.call_hypothese2.flby.next () Bool)
(declare-fun nS () Int)
(declare-fun call__main_.call_controleur.flby2.next () Bool)
(declare-fun call__main_.call_hypothese2.flby2.next () Int)
(declare-fun call__main_.call_controleur.retard.next () Bool)
(declare-fun call__main_.retard1 () Bool)
(declare-fun call__main_.retard0 () Bool)
(declare-fun nB1.next () Int)
(declare-fun call__main_.nS.next () Int)
(declare-fun call__main_.call_controleur.ite.next () Bool)
(declare-fun call_Sofar.flby.next () Bool)
(declare-fun call__main_.call_hypothese.c () Int)
(declare-fun call__main_.call_controleur.avance () Bool)
(declare-fun call__main_._H1_ () Bool)
(declare-fun call__main_.call_hypothese.ok.next () Bool)
(declare-fun call__main_.call_hypothese.ite4.next () Int)
(declare-fun pOK () Bool)
(declare-fun _OK_.next () Bool)
(declare-fun nB0.next () Int)
(declare-fun call__main_.call_controleur2.flby.next () Bool)
(declare-fun call__main_.call_controleur2.ite2.next () Bool)
(declare-fun nB0 () Int)
(declare-fun call__main_.flby3.next () Int)
(declare-fun call__main_.avance0.next () Bool)
(declare-fun call__main_.ite2.next () Int)
(declare-fun call__main_.call_hypothese.ite.next () Bool)
(declare-fun call__main_.call_controleur2.flby2 () Bool)
(declare-fun call_Sofar.Sofar () Bool)
(declare-fun call__main_.call_controleur2.avance () Bool)
(declare-fun call__main_.diff0.next () Int)
(declare-fun flby2.next () Bool)
(declare-fun call__main_.diff1.next () Int)
(declare-fun call__main_.call_controleur.retard () Bool)
(declare-fun call__main_.call_controleur2.retard () Bool)
(declare-fun call__main_.nB1.next () Int)
(declare-fun call__main_.flby3 () Int)
(declare-fun call__main_.call_controleur2.avance.next () Bool)
(declare-fun call__main_.call_controleur2.flby () Bool)
(declare-fun param__B1_.next () Bool)
(declare-fun param__B0_.next () Bool)
(declare-fun call__main_.call_hypothese2.ite2.next () Bool)
(declare-fun call__main_.call_controleur.diff () Int)
(declare-fun call__main_._H1_.next () Bool)
(declare-fun avance0.next () Bool)
(declare-fun call__main_.diff1 () Int)
(declare-fun call__main_.call_hypothese2.ok () Bool)
(declare-fun call__main_.call_controleur.flby2 () Bool)
(declare-fun call__main_.call_hypothese.ite2.next () Bool)
(declare-fun nB1 () Int)
(declare-fun call__main_.call_hypothese.ite3.next () Int)
(declare-fun avance1 () Bool)
(declare-fun call__main_.ast.next () Bool)
(declare-fun avance1.next () Bool)
(declare-fun call__main_.call_controleur.flby () Bool)
(declare-fun call__main_.call_hypothese.flby2.next () Int)
(declare-fun call__main_.call_hypothese2.ok.next () Bool)
(declare-fun diff1 () Int)
(declare-fun call__main_.flby.next () Int)
(declare-fun call__main_.nB0 () Int)
(declare-fun call__main_.call_hypothese2.ite3.next () Int)
(declare-fun call__main_.call_hypothese2.flby2 () Int)
(declare-fun call__main_.call_hypothese.flby () Bool)
(declare-fun flby.next () Bool)
(declare-fun call__main_.call_controleur2.ite.next () Bool)
(declare-fun call__main_.avance0 () Bool)
(declare-fun call__main_.nS () Int)
(declare-fun retard1.next () Bool)
(declare-fun call__main_.call_controleur2.retard.next () Bool)
(declare-fun call__main_.call_controleur.diff.next () Int)
(declare-fun _OK_ () Bool)
(declare-fun call__main_.call_controleur2.flby2.next () Bool)
(declare-fun call__main_.call_controleur.avance.next () Bool)
(declare-fun call__main_.call_controleur2.diff () Int)
(declare-fun call__main_.call_hypothese.flby.next () Bool)
(declare-fun call__main_.retard0.next () Bool)
(declare-fun call__main_.ite.next () Int)
(declare-fun call__main_.call_hypothese.flby2 () Int)
(declare-fun ast.next () Bool)
(declare-fun call__main_.avance1.next () Bool)
(declare-fun call__main_.avance1 () Bool)
(declare-fun call__main_.nB0.next () Int)
(declare-fun call__main_.ite3.next () Int)
(declare-fun ast () Bool)
(declare-fun call__main_.flby () Int)
(declare-fun diff1.next () Int)
(declare-fun call__main_.call_hypothese2.c.next () Int)
(declare-fun call__main_.retard1.next () Bool)
(declare-fun call__main_.call_controleur.ite2.next () Bool)
(declare-fun call__main_.flby2.next () Int)
(declare-fun retard0 () Bool)
(declare-fun flby () Bool)
(declare-fun call__main_.call_hypothese2.c () Int)
(declare-fun nS.next () Int)
(declare-fun diff0 () Int)
(declare-fun call__main_._H0_ () Bool)
(declare-fun avance0 () Bool)
(declare-fun call__main_._H0_.next () Bool)
(declare-fun call__main_.call_hypothese2.ite4.next () Int)
(declare-fun call__main_.flby2 () Int)
(declare-fun param__S_.next () Bool)
(declare-fun retard1 () Bool)
(declare-fun call__main_.ast () Bool)
(declare-fun call__main_.nB1 () Int)
(declare-fun diff0.next () Int)
(declare-fun call__main_.call_controleur.flby.next () Bool)
(define-fun .def_1001 () Bool (= call_Sofar.flby.next call_Sofar.Sofar.next))
(define-fun .def_999 () Bool (= call__main_.call_controleur2.flby2.next call__main_.call_controleur2.retard.next))
(define-fun .def_997 () Bool (= call__main_.call_controleur2.flby.next call__main_.call_controleur2.avance.next))
(define-fun .def_990 () Int (* (- 1) call__main_.nB1.next))
(define-fun .def_993 () Int (+ .def_990 call__main_.nS.next))
(define-fun .def_994 () Int (+ call__main_.call_controleur2.diff.next .def_993))
(define-fun .def_995 () Bool (= .def_994 0))
(define-fun .def_988 () Bool (= call__main_.call_controleur.flby2.next call__main_.call_controleur.retard.next))
(define-fun .def_986 () Bool (= call__main_.call_controleur.flby.next call__main_.call_controleur.avance.next))
(define-fun .def_979 () Int (* (- 1) call__main_.nB0.next))
(define-fun .def_982 () Int (+ .def_979 call__main_.nS.next))
(define-fun .def_983 () Int (+ call__main_.call_controleur.diff.next .def_982))
(define-fun .def_984 () Bool (= .def_983 0))
(define-fun .def_977 () Bool (= call__main_.call_hypothese2.flby2.next call__main_.call_hypothese2.c.next))
(define-fun .def_974 () Bool (= call__main_.call_hypothese2.flby.next call__main_.call_hypothese2.ok.next))
(define-fun .def_972 () Bool (= call__main_.call_hypothese.flby2.next call__main_.call_hypothese.c.next))
(define-fun .def_969 () Bool (= call__main_.call_hypothese.flby.next call__main_.call_hypothese.ok.next))
(define-fun .def_967 () Bool (= call__main_._H1_.next call__main_.call_hypothese2.ok.next))
(define-fun .def_964 () Bool (= call__main_._H0_.next call__main_.call_hypothese.ok.next))
(define-fun .def_961 () Bool (= call__main_.retard1.next call__main_.call_controleur2.retard.next))
(define-fun .def_958 () Bool (= call__main_.retard0.next call__main_.call_controleur.retard.next))
(define-fun .def_955 () Bool (= call__main_.avance1.next call__main_.call_controleur2.avance.next))
(define-fun .def_952 () Bool (= call__main_.avance0.next call__main_.call_controleur.avance.next))
(define-fun .def_949 () Bool (= call__main_.call_controleur2.diff.next call__main_.diff1.next))
(define-fun .def_947 () Bool (= call__main_.call_controleur.diff.next call__main_.diff0.next))
(define-fun .def_945 () Bool (= call__main_.flby3.next call__main_.nS.next))
(define-fun .def_943 () Bool (= call__main_.flby2.next call__main_.nB1.next))
(define-fun .def_941 () Bool (= call__main_.flby.next call__main_.nB0.next))
(define-fun .def_938 () Bool (and call__main_._H0_.next call__main_._H1_.next))
(define-fun .def_939 () Bool (= call__main_.ast.next .def_938))
(define-fun .def_934 () Bool (= ast.next call__main_.ast.next))
(define-fun .def_931 () Bool (= flby.next pOK.next))
(define-fun .def_928 () Bool (= retard1.next call__main_.retard1.next))
(define-fun .def_924 () Bool (= retard0.next call__main_.retard0.next))
(define-fun .def_921 () Bool (= call__main_.avance1.next avance1.next))
(define-fun .def_918 () Bool (= avance0.next call__main_.avance0.next))
(define-fun .def_916 () Bool (= diff1.next call__main_.diff1.next))
(define-fun .def_912 () Bool (= diff0.next call__main_.diff0.next))
(define-fun .def_909 () Bool (= nS.next call__main_.nS.next))
(define-fun .def_906 () Bool (= nB1.next call__main_.nB1.next))
(define-fun .def_903 () Bool (= nB0.next call__main_.nB0.next))
(define-fun .def_899 () Bool (not call_Sofar.Sofar.next))
(define-fun .def_900 () Bool (or flby2.next .def_899))
(define-fun .def_901 () Bool (= _OK_.next .def_900))
(define-fun .def_904 () Bool (and .def_901 .def_903))
(define-fun .def_907 () Bool (and .def_904 .def_906))
(define-fun .def_910 () Bool (and .def_907 .def_909))
(define-fun .def_913 () Bool (and .def_910 .def_912))
(define-fun .def_917 () Bool (and .def_913 .def_916))
(define-fun .def_919 () Bool (and .def_917 .def_918))
(define-fun .def_922 () Bool (and .def_919 .def_921))
(define-fun .def_925 () Bool (and .def_922 .def_924))
(define-fun .def_929 () Bool (and .def_925 .def_928))
(define-fun .def_932 () Bool (and .def_929 .def_931))
(define-fun .def_935 () Bool (and .def_932 .def_934))
(define-fun .def_940 () Bool (and .def_935 .def_939))
(define-fun .def_942 () Bool (and .def_940 .def_941))
(define-fun .def_944 () Bool (and .def_942 .def_943))
(define-fun .def_946 () Bool (and .def_944 .def_945))
(define-fun .def_948 () Bool (and .def_946 .def_947))
(define-fun .def_950 () Bool (and .def_948 .def_949))
(define-fun .def_953 () Bool (and .def_950 .def_952))
(define-fun .def_956 () Bool (and .def_953 .def_955))
(define-fun .def_959 () Bool (and .def_956 .def_958))
(define-fun .def_962 () Bool (and .def_959 .def_961))
(define-fun .def_965 () Bool (and .def_962 .def_964))
(define-fun .def_968 () Bool (and .def_965 .def_967))
(define-fun .def_970 () Bool (and .def_968 .def_969))
(define-fun .def_973 () Bool (and .def_970 .def_972))
(define-fun .def_975 () Bool (and .def_973 .def_974))
(define-fun .def_978 () Bool (and .def_975 .def_977))
(define-fun .def_985 () Bool (and .def_978 .def_984))
(define-fun .def_987 () Bool (and .def_985 .def_986))
(define-fun .def_989 () Bool (and .def_987 .def_988))
(define-fun .def_996 () Bool (and .def_989 .def_995))
(define-fun .def_998 () Bool (and .def_996 .def_997))
(define-fun .def_1000 () Bool (and .def_998 .def_999))
(define-fun .def_1002 () Bool (and .def_1000 .def_1001))
(define-fun .def_680 () Bool (= call_Sofar.flby call_Sofar.Sofar))
(define-fun .def_678 () Bool (= call__main_.call_controleur2.flby2 call__main_.call_controleur2.retard))
(define-fun .def_676 () Bool (= call__main_.call_controleur2.flby call__main_.call_controleur2.avance))
(define-fun .def_671 () Int (* (- 1) call__main_.call_controleur2.diff))
(define-fun .def_659 () Int (* (- 1) call__main_.nS))
(define-fun .def_672 () Int (+ .def_659 .def_671))
(define-fun .def_673 () Int (+ call__main_.nB1 .def_672))
(define-fun .def_674 () Bool (= .def_673 0))
(define-fun .def_666 () Bool (= call__main_.call_controleur.flby2 call__main_.call_controleur.retard))
(define-fun .def_664 () Bool (= call__main_.call_controleur.flby call__main_.call_controleur.avance))
(define-fun .def_658 () Int (* (- 1) call__main_.call_controleur.diff))
(define-fun .def_660 () Int (+ .def_659 .def_658))
(define-fun .def_661 () Int (+ call__main_.nB0 .def_660))
(define-fun .def_662 () Bool (= .def_661 0))
(define-fun .def_653 () Bool (= call__main_.call_hypothese2.flby2 call__main_.call_hypothese2.c))
(define-fun .def_650 () Bool (= call__main_.call_hypothese2.flby call__main_.call_hypothese2.ok))
(define-fun .def_648 () Bool (= call__main_.call_hypothese.flby2 call__main_.call_hypothese.c))
(define-fun .def_645 () Bool (= call__main_.call_hypothese.flby call__main_.call_hypothese.ok))
(define-fun .def_643 () Bool (= call__main_._H1_ call__main_.call_hypothese2.ok))
(define-fun .def_640 () Bool (= call__main_._H0_ call__main_.call_hypothese.ok))
(define-fun .def_637 () Bool (= call__main_.retard1 call__main_.call_controleur2.retard))
(define-fun .def_634 () Bool (= call__main_.retard0 call__main_.call_controleur.retard))
(define-fun .def_631 () Bool (= call__main_.avance1 call__main_.call_controleur2.avance))
(define-fun .def_628 () Bool (= call__main_.avance0 call__main_.call_controleur.avance))
(define-fun .def_625 () Bool (= call__main_.diff1 call__main_.call_controleur2.diff))
(define-fun .def_622 () Bool (= call__main_.diff0 call__main_.call_controleur.diff))
(define-fun .def_619 () Bool (= call__main_.flby3 call__main_.nS))
(define-fun .def_617 () Bool (= call__main_.flby2 call__main_.nB1))
(define-fun .def_615 () Bool (= call__main_.flby call__main_.nB0))
(define-fun .def_612 () Bool (and call__main_._H0_ call__main_._H1_))
(define-fun .def_613 () Bool (= call__main_.ast .def_612))
(define-fun .def_608 () Bool (= ast call__main_.ast))
(define-fun .def_605 () Bool (= flby pOK))
(define-fun .def_602 () Bool (= retard1 call__main_.retard1))
(define-fun .def_598 () Bool (= retard0 call__main_.retard0))
(define-fun .def_594 () Bool (= avance1 call__main_.avance1))
(define-fun .def_590 () Bool (= avance0 call__main_.avance0))
(define-fun .def_586 () Bool (= diff1 call__main_.diff1))
(define-fun .def_582 () Bool (= diff0 call__main_.diff0))
(define-fun .def_579 () Bool (= nS call__main_.nS))
(define-fun .def_576 () Bool (= nB1 call__main_.nB1))
(define-fun .def_573 () Bool (= nB0 call__main_.nB0))
(define-fun .def_569 () Bool (not call_Sofar.Sofar))
(define-fun .def_570 () Bool (or flby2 .def_569))
(define-fun .def_571 () Bool (= _OK_ .def_570))
(define-fun .def_574 () Bool (and .def_571 .def_573))
(define-fun .def_577 () Bool (and .def_574 .def_576))
(define-fun .def_580 () Bool (and .def_577 .def_579))
(define-fun .def_583 () Bool (and .def_580 .def_582))
(define-fun .def_587 () Bool (and .def_583 .def_586))
(define-fun .def_591 () Bool (and .def_587 .def_590))
(define-fun .def_595 () Bool (and .def_591 .def_594))
(define-fun .def_599 () Bool (and .def_595 .def_598))
(define-fun .def_603 () Bool (and .def_599 .def_602))
(define-fun .def_606 () Bool (and .def_603 .def_605))
(define-fun .def_609 () Bool (and .def_606 .def_608))
(define-fun .def_614 () Bool (and .def_609 .def_613))
(define-fun .def_616 () Bool (and .def_614 .def_615))
(define-fun .def_618 () Bool (and .def_616 .def_617))
(define-fun .def_620 () Bool (and .def_618 .def_619))
(define-fun .def_623 () Bool (and .def_620 .def_622))
(define-fun .def_626 () Bool (and .def_623 .def_625))
(define-fun .def_629 () Bool (and .def_626 .def_628))
(define-fun .def_632 () Bool (and .def_629 .def_631))
(define-fun .def_635 () Bool (and .def_632 .def_634))
(define-fun .def_638 () Bool (and .def_635 .def_637))
(define-fun .def_641 () Bool (and .def_638 .def_640))
(define-fun .def_644 () Bool (and .def_641 .def_643))
(define-fun .def_646 () Bool (and .def_644 .def_645))
(define-fun .def_649 () Bool (and .def_646 .def_648))
(define-fun .def_651 () Bool (and .def_649 .def_650))
(define-fun .def_654 () Bool (and .def_651 .def_653))
(define-fun .def_663 () Bool (and .def_654 .def_662))
(define-fun .def_665 () Bool (and .def_663 .def_664))
(define-fun .def_667 () Bool (and .def_665 .def_666))
(define-fun .def_675 () Bool (and .def_667 .def_674))
(define-fun .def_677 () Bool (and .def_675 .def_676))
(define-fun .def_679 () Bool (and .def_677 .def_678))
(define-fun .def_681 () Bool (and .def_679 .def_680))
(define-fun .def_1003 () Bool (and .def_681 .def_1002))
(define-fun .def_890 () Bool (<= 32767 diff0.next))
(define-fun .def_891 () Bool (not .def_890))
(define-fun .def_886 () Bool (<= 1 nS.next))
(define-fun .def_887 () Bool (not .def_886))
(define-fun .def_882 () Bool (<= 1 nB1.next))
(define-fun .def_883 () Bool (not .def_882))
(define-fun .def_877 () Bool (<= 1 nB0.next))
(define-fun .def_878 () Bool (not .def_877))
(define-fun .def_880 () Bool (and .def_878 ast.next))
(define-fun .def_884 () Bool (and .def_880 .def_883))
(define-fun .def_888 () Bool (and .def_884 .def_887))
(define-fun .def_892 () Bool (and .def_888 .def_891))
(define-fun .def_893 () Bool (and call_Sofar.Sofar .def_892))
(define-fun .def_895 () Bool (= .def_893 call_Sofar.flby.next))
(define-fun .def_874 () Bool (= call__main_.call_controleur2.ite2.next call__main_.call_controleur2.flby2.next))
(define-fun .def_871 () Bool (= call__main_.call_controleur2.ite.next call__main_.call_controleur2.flby.next))
(define-fun .def_864 () Bool (<= 0 call__main_.call_controleur2.diff.next))
(define-fun .def_865 () Bool (not .def_864))
(define-fun .def_866 () Bool (= call__main_.call_controleur2.ite2.next .def_865))
(define-fun .def_863 () Bool (not call__main_.call_controleur2.retard))
(define-fun .def_867 () Bool (or .def_863 .def_866))
(define-fun .def_858 () Bool (<= call__main_.call_controleur2.diff.next (- 10)))
(define-fun .def_860 () Bool (= .def_858 call__main_.call_controleur2.ite2.next))
(define-fun .def_861 () Bool (or call__main_.call_controleur2.retard .def_860))
(define-fun .def_854 () Bool (<= 10 call__main_.call_controleur2.diff.next))
(define-fun .def_855 () Bool (= call__main_.call_controleur2.ite.next .def_854))
(define-fun .def_856 () Bool (or call__main_.call_controleur2.avance .def_855))
(define-fun .def_849 () Bool (<= call__main_.call_controleur2.diff.next 0))
(define-fun .def_850 () Bool (not .def_849))
(define-fun .def_852 () Bool (= .def_850 call__main_.call_controleur2.ite.next))
(define-fun .def_847 () Bool (not call__main_.call_controleur2.avance))
(define-fun .def_853 () Bool (or .def_847 .def_852))
(define-fun .def_857 () Bool (and .def_853 .def_856))
(define-fun .def_862 () Bool (and .def_857 .def_861))
(define-fun .def_868 () Bool (and .def_862 .def_867))
(define-fun .def_845 () Bool (= call__main_.call_controleur.ite2.next call__main_.call_controleur.flby2.next))
(define-fun .def_842 () Bool (= call__main_.call_controleur.ite.next call__main_.call_controleur.flby.next))
(define-fun .def_835 () Bool (<= 0 call__main_.call_controleur.diff.next))
(define-fun .def_836 () Bool (not .def_835))
(define-fun .def_837 () Bool (= call__main_.call_controleur.ite2.next .def_836))
(define-fun .def_834 () Bool (not call__main_.call_controleur.retard))
(define-fun .def_838 () Bool (or .def_834 .def_837))
(define-fun .def_829 () Bool (<= call__main_.call_controleur.diff.next (- 10)))
(define-fun .def_831 () Bool (= .def_829 call__main_.call_controleur.ite2.next))
(define-fun .def_832 () Bool (or call__main_.call_controleur.retard .def_831))
(define-fun .def_825 () Bool (<= 10 call__main_.call_controleur.diff.next))
(define-fun .def_826 () Bool (= call__main_.call_controleur.ite.next .def_825))
(define-fun .def_827 () Bool (or call__main_.call_controleur.avance .def_826))
(define-fun .def_820 () Bool (<= call__main_.call_controleur.diff.next 0))
(define-fun .def_821 () Bool (not .def_820))
(define-fun .def_823 () Bool (= .def_821 call__main_.call_controleur.ite.next))
(define-fun .def_818 () Bool (not call__main_.call_controleur.avance))
(define-fun .def_824 () Bool (or .def_818 .def_823))
(define-fun .def_828 () Bool (and .def_824 .def_827))
(define-fun .def_833 () Bool (and .def_828 .def_832))
(define-fun .def_839 () Bool (and .def_833 .def_838))
(define-fun .def_816 () Bool (= call__main_.call_hypothese2.ite4.next call__main_.call_hypothese2.flby2.next))
(define-fun .def_811 () Bool (and call__main_.call_hypothese2.ite2.next call__main_.call_hypothese2.ite.next))
(define-fun .def_813 () Bool (= .def_811 call__main_.call_hypothese2.flby.next))
(define-fun .def_692 () Bool (<= 9 call__main_.call_hypothese2.c))
(define-fun .def_809 () Bool (or call__main_.call_hypothese2.ite2.next .def_692))
(define-fun .def_807 () Bool (= call__main_.call_hypothese.ite4.next call__main_.call_hypothese.flby2.next))
(define-fun .def_802 () Bool (and call__main_.call_hypothese.ite2.next call__main_.call_hypothese.ite.next))
(define-fun .def_804 () Bool (= .def_802 call__main_.call_hypothese.flby.next))
(define-fun .def_717 () Bool (<= 9 call__main_.call_hypothese.c))
(define-fun .def_800 () Bool (or call__main_.call_hypothese.ite2.next .def_717))
(define-fun .def_798 () Bool (= call__main_.ite3.next call__main_.flby3.next))
(define-fun .def_795 () Bool (= call__main_.ite2.next call__main_.flby2.next))
(define-fun .def_792 () Bool (= call__main_.ite.next call__main_.flby.next))
(define-fun .def_789 () Bool (or call__main_.retard1 call__main_.call_hypothese2.ite.next))
(define-fun .def_787 () Bool (or call__main_.retard0 call__main_.call_hypothese.ite.next))
(define-fun .def_780 () Bool (and call__main_.avance1 call__main_.avance1.next))
(define-fun .def_783 () Bool (not .def_780))
(define-fun .def_782 () Bool (= call__main_.call_hypothese2.ite3.next call__main_.call_hypothese2.ite4.next))
(define-fun .def_784 () Bool (or .def_782 .def_783))
(define-fun .def_778 () Bool (= call__main_.call_hypothese2.ite4.next 0))
(define-fun .def_781 () Bool (or .def_778 .def_780))
(define-fun .def_785 () Bool (and .def_781 .def_784))
(define-fun .def_770 () Bool (and call__main_.avance0 call__main_.avance0.next))
(define-fun .def_773 () Bool (not .def_770))
(define-fun .def_772 () Bool (= call__main_.call_hypothese.ite3.next call__main_.call_hypothese.ite4.next))
(define-fun .def_774 () Bool (or .def_772 .def_773))
(define-fun .def_768 () Bool (= call__main_.call_hypothese.ite4.next 0))
(define-fun .def_771 () Bool (or .def_768 .def_770))
(define-fun .def_775 () Bool (and .def_771 .def_774))
(define-fun .def_765 () Bool (= pOK flby2.next))
(define-fun .def_758 () Bool (and retard0 avance0.next))
(define-fun .def_756 () Bool (and avance0 retard0.next))
(define-fun .def_759 () Bool (or .def_756 .def_758))
(define-fun .def_760 () Bool (not .def_759))
(define-fun .def_762 () Bool (= .def_760 flby.next))
(define-fun .def_751 () Bool (= call__main_.nS call__main_.ite3.next))
(define-fun .def_752 () Bool (or param__S_.next .def_751))
(define-fun .def_746 () Int (* (- 1) call__main_.ite3.next))
(define-fun .def_747 () Int (+ call__main_.nS .def_746))
(define-fun .def_748 () Bool (= .def_747 (- 1)))
(define-fun .def_735 () Bool (not param__S_.next))
(define-fun .def_749 () Bool (or .def_735 .def_748))
(define-fun .def_742 () Bool (not call__main_.retard0))
(define-fun .def_741 () Bool (= .def_735 call__main_.call_hypothese.ite.next))
(define-fun .def_743 () Bool (or .def_741 .def_742))
(define-fun .def_738 () Bool (not call__main_.retard1))
(define-fun .def_737 () Bool (= .def_735 call__main_.call_hypothese2.ite.next))
(define-fun .def_739 () Bool (or .def_737 .def_738))
(define-fun .def_744 () Bool (and .def_739 .def_743))
(define-fun .def_750 () Bool (and .def_744 .def_749))
(define-fun .def_753 () Bool (and .def_750 .def_752))
(define-fun .def_730 () Bool (= call__main_.nB0 call__main_.ite.next))
(define-fun .def_731 () Bool (or param__B0_.next .def_730))
(define-fun .def_725 () Int (* (- 1) call__main_.ite.next))
(define-fun .def_726 () Int (+ call__main_.nB0 .def_725))
(define-fun .def_727 () Bool (= .def_726 (- 2)))
(define-fun .def_713 () Bool (not param__B0_.next))
(define-fun .def_728 () Bool (or .def_713 .def_727))
(define-fun .def_721 () Bool (= call__main_.call_hypothese.c call__main_.call_hypothese.ite3.next))
(define-fun .def_722 () Bool (or param__B0_.next .def_721))
(define-fun .def_718 () Bool (not .def_717))
(define-fun .def_716 () Bool (= .def_713 call__main_.call_hypothese.ite2.next))
(define-fun .def_719 () Bool (or .def_716 .def_718))
(define-fun .def_709 () Int (* (- 1) call__main_.call_hypothese.ite3.next))
(define-fun .def_710 () Int (+ call__main_.call_hypothese.c .def_709))
(define-fun .def_711 () Bool (= .def_710 (- 2)))
(define-fun .def_714 () Bool (or .def_711 .def_713))
(define-fun .def_720 () Bool (and .def_714 .def_719))
(define-fun .def_723 () Bool (and .def_720 .def_722))
(define-fun .def_729 () Bool (and .def_723 .def_728))
(define-fun .def_732 () Bool (and .def_729 .def_731))
(define-fun .def_705 () Bool (= call__main_.nB1 call__main_.ite2.next))
(define-fun .def_706 () Bool (or param__B1_.next .def_705))
(define-fun .def_700 () Int (* (- 1) call__main_.ite2.next))
(define-fun .def_701 () Int (+ call__main_.nB1 .def_700))
(define-fun .def_702 () Bool (= .def_701 (- 1)))
(define-fun .def_688 () Bool (not param__B1_.next))
(define-fun .def_703 () Bool (or .def_688 .def_702))
(define-fun .def_696 () Bool (= call__main_.call_hypothese2.c call__main_.call_hypothese2.ite3.next))
(define-fun .def_697 () Bool (or param__B1_.next .def_696))
(define-fun .def_693 () Bool (not .def_692))
(define-fun .def_691 () Bool (= .def_688 call__main_.call_hypothese2.ite2.next))
(define-fun .def_694 () Bool (or .def_691 .def_693))
(define-fun .def_684 () Int (* (- 1) call__main_.call_hypothese2.ite3.next))
(define-fun .def_685 () Int (+ call__main_.call_hypothese2.c .def_684))
(define-fun .def_686 () Bool (= .def_685 (- 2)))
(define-fun .def_689 () Bool (or .def_686 .def_688))
(define-fun .def_695 () Bool (and .def_689 .def_694))
(define-fun .def_698 () Bool (and .def_695 .def_697))
(define-fun .def_704 () Bool (and .def_698 .def_703))
(define-fun .def_707 () Bool (and .def_704 .def_706))
(define-fun .def_733 () Bool (and .def_707 .def_732))
(define-fun .def_754 () Bool (and .def_733 .def_753))
(define-fun .def_763 () Bool (and .def_754 .def_762))
(define-fun .def_766 () Bool (and .def_763 .def_765))
(define-fun .def_776 () Bool (and .def_766 .def_775))
(define-fun .def_786 () Bool (and .def_776 .def_785))
(define-fun .def_788 () Bool (and .def_786 .def_787))
(define-fun .def_790 () Bool (and .def_788 .def_789))
(define-fun .def_793 () Bool (and .def_790 .def_792))
(define-fun .def_796 () Bool (and .def_793 .def_795))
(define-fun .def_799 () Bool (and .def_796 .def_798))
(define-fun .def_801 () Bool (and .def_799 .def_800))
(define-fun .def_805 () Bool (and .def_801 .def_804))
(define-fun .def_808 () Bool (and .def_805 .def_807))
(define-fun .def_810 () Bool (and .def_808 .def_809))
(define-fun .def_814 () Bool (and .def_810 .def_813))
(define-fun .def_817 () Bool (and .def_814 .def_816))
(define-fun .def_840 () Bool (and .def_817 .def_839))
(define-fun .def_843 () Bool (and .def_840 .def_842))
(define-fun .def_846 () Bool (and .def_843 .def_845))
(define-fun .def_869 () Bool (and .def_846 .def_868))
(define-fun .def_872 () Bool (and .def_869 .def_871))
(define-fun .def_875 () Bool (and .def_872 .def_874))
(define-fun .def_896 () Bool (and .def_875 .def_895))
(define-fun .def_1004 () Bool (and .def_896 .def_1003))
(assert .def_1004)
